p edge 692 667
e 1 2
e 1 3
e 1 4
e 1 5
e 1 6
e 1 7
e 1 8
e 1 9
e 1 10
e 1 11
e 12 13
e 12 14
e 12 15
e 12 16
e 12 17
e 12 18
e 12 19
e 12 20
e 12 21
e 12 22
e 12 23
e 12 24
e 12 25
e 12 26
e 12 27
e 12 28
e 12 29
e 12 30
e 12 31
e 12 32
e 12 33
e 12 34
e 12 35
e 12 36
e 12 37
e 12 38
e 12 39
e 12 40
e 12 41
e 12 42
e 12 43
e 12 44
e 12 45
e 12 46
e 47 48
e 47 49
e 47 50
e 47 51
e 47 52
e 47 53
e 47 54
e 47 55
e 47 56
e 47 57
e 47 58
e 47 59
e 47 60
e 61 62
e 61 63
e 61 64
e 61 65
e 61 66
e 61 67
e 61 68
e 61 69
e 61 70
e 61 71
e 61 72
e 61 73
e 61 74
e 61 75
e 61 76
e 61 77
e 61 78
e 61 79
e 61 80
e 61 81
e 61 82
e 61 83
e 61 84
e 61 85
e 86 87
e 86 88
e 86 89
e 86 90
e 86 91
e 86 92
e 86 93
e 86 94
e 86 95
e 86 96
e 86 97
e 86 98
e 86 99
e 86 100
e 86 101
e 86 102
e 86 103
e 86 104
e 86 105
e 86 106
e 86 107
e 86 108
e 86 109
e 86 110
e 111 112
e 111 113
e 111 114
e 111 115
e 111 116
e 111 117
e 111 118
e 111 119
e 111 120
e 111 121
e 111 122
e 111 123
e 111 124
e 111 125
e 111 126
e 111 127
e 111 128
e 111 129
e 111 130
e 111 131
e 111 132
e 111 133
e 111 134
e 111 135
e 111 136
e 111 137
e 111 138
e 111 139
e 111 140
e 111 141
e 111 142
e 111 143
e 111 144
e 111 145
e 111 146
e 147 148
e 147 149
e 147 150
e 147 151
e 147 152
e 147 153
e 147 154
e 147 155
e 147 156
e 147 157
e 147 158
e 147 159
e 147 160
e 161 162
e 161 163
e 161 164
e 161 165
e 161 166
e 161 167
e 161 168
e 161 169
e 161 170
e 161 171
e 161 172
e 161 173
e 161 174
e 161 175
e 161 176
e 161 177
e 161 178
e 161 179
e 161 180
e 161 181
e 161 182
e 161 183
e 161 184
e 161 185
e 161 186
e 161 187
e 161 188
e 161 189
e 190 191
e 190 192
e 190 193
e 190 194
e 190 195
e 190 196
e 190 197
e 190 198
e 190 199
e 190 200
e 190 201
e 190 202
e 190 203
e 190 204
e 190 205
e 190 206
e 190 207
e 190 208
e 190 209
e 190 210
e 190 211
e 190 212
e 190 213
e 190 214
e 190 215
e 216 217
e 216 218
e 216 219
e 216 220
e 216 221
e 216 222
e 216 223
e 216 224
e 216 225
e 216 226
e 216 227
e 216 228
e 216 229
e 216 230
e 216 231
e 216 232
e 216 233
e 216 234
e 216 235
e 216 236
e 216 237
e 216 238
e 216 239
e 216 240
e 216 241
e 216 242
e 216 243
e 216 244
e 216 245
e 216 246
e 216 247
e 216 248
e 249 250
e 249 251
e 249 252
e 249 253
e 249 254
e 249 255
e 249 256
e 249 257
e 249 258
e 249 259
e 249 260
e 249 261
e 249 262
e 249 263
e 249 264
e 249 265
e 249 266
e 249 267
e 268 269
e 268 270
e 268 271
e 268 272
e 268 273
e 268 274
e 268 275
e 268 276
e 268 277
e 268 278
e 268 279
e 268 280
e 268 281
e 268 282
e 268 283
e 268 284
e 268 285
e 268 286
e 268 287
e 268 288
e 268 289
e 268 290
e 268 291
e 268 292
e 268 293
e 268 294
e 268 295
e 268 296
e 268 297
e 268 298
e 299 300
e 299 301
e 299 302
e 299 303
e 299 304
e 299 305
e 299 306
e 299 307
e 299 308
e 299 309
e 299 310
e 299 311
e 299 312
e 299 313
e 299 314
e 299 315
e 299 316
e 299 317
e 299 318
e 299 319
e 299 320
e 299 321
e 299 322
e 299 323
e 299 324
e 299 325
e 299 326
e 299 327
e 299 328
e 299 329
e 299 330
e 331 332
e 331 333
e 331 334
e 331 335
e 331 336
e 331 337
e 331 338
e 331 339
e 331 340
e 331 341
e 331 342
e 331 343
e 331 344
e 331 345
e 331 346
e 331 347
e 331 348
e 331 349
e 331 350
e 331 351
e 331 352
e 331 353
e 354 355
e 354 356
e 354 357
e 354 358
e 354 359
e 354 360
e 354 361
e 354 362
e 354 363
e 354 364
e 354 365
e 354 366
e 354 367
e 354 368
e 354 369
e 354 370
e 354 371
e 354 372
e 354 373
e 354 374
e 354 375
e 354 376
e 354 377
e 354 378
e 354 379
e 354 380
e 354 381
e 354 382
e 354 383
e 354 384
e 354 385
e 354 386
e 354 387
e 354 388
e 354 389
e 390 391
e 390 392
e 390 393
e 390 394
e 390 395
e 390 396
e 390 397
e 390 398
e 390 399
e 390 400
e 390 401
e 390 402
e 390 403
e 390 404
e 390 405
e 390 406
e 390 407
e 390 408
e 390 409
e 390 410
e 390 411
e 390 412
e 390 413
e 390 414
e 390 415
e 390 416
e 390 417
e 390 418
e 390 419
e 390 420
e 390 421
e 390 422
e 390 423
e 390 424
e 390 425
e 390 426
e 390 427
e 390 428
e 390 429
e 430 431
e 430 432
e 430 433
e 430 434
e 430 435
e 430 436
e 430 437
e 430 438
e 430 439
e 430 440
e 430 441
e 430 442
e 430 443
e 430 444
e 430 445
e 430 446
e 430 447
e 430 448
e 430 449
e 430 450
e 430 451
e 430 452
e 453 454
e 453 455
e 453 456
e 453 457
e 453 458
e 453 459
e 453 460
e 453 461
e 453 462
e 453 463
e 453 464
e 453 465
e 453 466
e 453 467
e 453 468
e 453 469
e 453 470
e 453 471
e 453 472
e 453 473
e 453 474
e 453 475
e 453 476
e 453 477
e 453 478
e 453 479
e 453 480
e 453 481
e 453 482
e 453 483
e 453 484
e 453 485
e 453 486
e 453 487
e 453 488
e 453 489
e 453 490
e 453 491
e 453 492
e 493 494
e 493 495
e 493 496
e 493 497
e 493 498
e 493 499
e 493 500
e 493 501
e 493 502
e 493 503
e 493 504
e 493 505
e 493 506
e 493 507
e 493 508
e 493 509
e 493 510
e 493 511
e 493 512
e 493 513
e 493 514
e 493 515
e 493 516
e 493 517
e 493 518
e 493 519
e 493 520
e 493 521
e 493 522
e 493 523
e 493 524
e 525 526
e 525 527
e 525 528
e 525 529
e 525 530
e 525 531
e 525 532
e 525 533
e 525 534
e 525 535
e 525 536
e 525 537
e 525 538
e 525 539
e 525 540
e 525 541
e 525 542
e 525 543
e 525 544
e 525 545
e 525 546
e 525 547
e 525 548
e 525 549
e 525 550
e 525 551
e 525 552
e 525 553
e 525 554
e 525 555
e 525 556
e 525 557
e 525 558
e 559 560
e 559 561
e 559 562
e 559 563
e 559 564
e 559 565
e 559 566
e 559 567
e 559 568
e 559 569
e 559 570
e 559 571
e 559 572
e 559 573
e 559 574
e 559 575
e 559 576
e 559 577
e 559 578
e 559 579
e 559 580
e 559 581
e 559 582
e 559 583
e 559 584
e 559 585
e 586 587
e 586 588
e 586 589
e 586 590
e 586 591
e 586 592
e 586 593
e 586 594
e 586 595
e 586 596
e 586 597
e 586 598
e 599 600
e 599 601
e 599 602
e 599 603
e 599 604
e 599 605
e 599 606
e 599 607
e 599 608
e 599 609
e 599 610
e 599 611
e 599 612
e 599 613
e 599 614
e 599 615
e 599 616
e 599 617
e 599 618
e 599 619
e 599 620
e 599 621
e 599 622
e 599 623
e 599 624
e 599 625
e 599 626
e 599 627
e 599 628
e 599 629
e 599 630
e 599 631
e 599 632
e 599 633
e 599 634
e 599 635
e 599 636
e 599 637
e 599 638
e 599 639
e 640 641
e 640 642
e 640 643
e 640 644
e 640 645
e 640 646
e 640 647
e 640 648
e 640 649
e 640 650
e 640 651
e 640 652
e 640 653
e 640 654
e 640 655
e 656 657
e 656 658
e 656 659
e 656 660
e 656 661
e 656 662
e 656 663
e 656 664
e 656 665
e 656 666
e 656 667
e 656 668
e 656 669
e 656 670
e 656 671
e 656 672
e 656 673
e 656 674
e 656 675
e 656 676
e 656 677
e 656 678
e 656 679
e 656 680
e 656 681
e 656 682
e 656 683
e 656 684
e 656 685
e 656 686
e 656 687
e 656 688
e 656 689
e 656 690
e 656 691
e 656 692
